c Generated map
c Size: 15 * 15, weights in range: 1 to 10, walls: True, with ratio 0.05
c dim 4 of 4
c
p sp 225 380
c graph contains 225 nodes and 380 arcs
c
a 1 16 1
a 16 1 1
a 1 2 10
a 2 1 10
a 2 17 4
a 17 2 4
a 2 3 4
a 3 2 4
a 3 18 10
a 18 3 10
a 3 4 5
a 4 3 5
a 4 19 3
a 19 4 3
a 4 5 1
a 5 4 1
a 5 20 6
a 20 5 6
a 5 6 8
a 6 5 8
a 6 21 1
a 21 6 1
a 6 7 5
a 7 6 5
a 7 22 10
a 22 7 10
a 9 10 1
a 10 9 1
a 10 25 10
a 25 10 10
a 10 11 5
a 11 10 5
a 11 26 7
a 26 11 7
a 11 12 9
a 12 11 9
a 12 27 2
a 27 12 2
a 12 13 3
a 13 12 3
a 13 28 9
a 28 13 9
a 13 14 6
a 14 13 6
a 14 29 5
a 29 14 5
a 14 15 10
a 15 14 10
a 16 31 6
a 31 16 6
a 16 17 1
a 17 16 1
a 17 32 1
a 32 17 1
a 17 18 2
a 18 17 2
a 18 33 8
a 33 18 8
a 18 19 1
a 19 18 1
a 19 34 4
a 34 19 4
a 19 20 3
a 20 19 3
a 20 35 5
a 35 20 5
a 20 21 5
a 21 20 5
a 21 36 5
a 36 21 5
a 21 22 4
a 22 21 4
a 22 37 7
a 37 22 7
a 22 23 7
a 23 22 7
a 23 38 1
a 38 23 1
a 25 40 9
a 40 25 9
a 25 26 3
a 26 25 3
a 26 41 3
a 41 26 3
a 26 27 7
a 27 26 7
a 27 42 1
a 42 27 1
a 27 28 1
a 28 27 1
a 28 43 2
a 43 28 2
a 28 29 8
a 29 28 8
a 29 44 1
a 44 29 1
a 31 46 5
a 46 31 5
a 31 32 10
a 32 31 10
a 32 47 3
a 47 32 3
a 32 33 4
a 33 32 4
a 33 48 6
a 48 33 6
a 33 34 7
a 34 33 7
a 34 49 7
a 49 34 7
a 34 35 6
a 35 34 6
a 35 36 6
a 36 35 6
a 36 51 1
a 51 36 1
a 36 37 3
a 37 36 3
a 37 52 4
a 52 37 4
a 37 38 4
a 38 37 4
a 38 53 7
a 53 38 7
a 38 39 6
a 39 38 6
a 39 54 6
a 54 39 6
a 39 40 3
a 40 39 3
a 40 55 10
a 55 40 10
a 40 41 2
a 41 40 2
a 41 56 7
a 56 41 7
a 41 42 1
a 42 41 1
a 42 57 10
a 57 42 10
a 42 43 9
a 43 42 9
a 43 58 4
a 58 43 4
a 43 44 9
a 44 43 9
a 44 59 1
a 59 44 1
a 44 45 10
a 45 44 10
a 45 60 9
a 60 45 9
a 46 61 7
a 61 46 7
a 46 47 6
a 47 46 6
a 47 62 7
a 62 47 7
a 47 48 5
a 48 47 5
a 48 63 3
a 63 48 3
a 48 49 3
a 49 48 3
a 51 66 9
a 66 51 9
a 51 52 8
a 52 51 8
a 52 67 6
a 67 52 6
a 52 53 4
a 53 52 4
a 53 68 10
a 68 53 10
a 53 54 1
a 54 53 1
a 54 69 2
a 69 54 2
a 54 55 2
a 55 54 2
a 55 70 6
a 70 55 6
a 55 56 9
a 56 55 9
a 56 71 7
a 71 56 7
a 56 57 9
a 57 56 9
a 57 72 4
a 72 57 4
a 57 58 4
a 58 57 4
a 58 73 4
a 73 58 4
a 58 59 4
a 59 58 4
a 59 74 7
a 74 59 7
a 59 60 1
a 60 59 1
a 60 75 5
a 75 60 5
a 61 76 8
a 76 61 8
a 61 62 4
a 62 61 4
a 62 77 8
a 77 62 8
a 62 63 10
a 63 62 10
a 63 78 2
a 78 63 2
a 65 80 7
a 80 65 7
a 65 66 6
a 66 65 6
a 66 81 2
a 81 66 2
a 66 67 4
a 67 66 4
a 67 82 2
a 82 67 2
a 67 68 8
a 68 67 8
a 68 83 4
a 83 68 4
a 68 69 3
a 69 68 3
a 69 84 6
a 84 69 6
a 69 70 5
a 70 69 5
a 70 85 2
a 85 70 2
a 70 71 6
a 71 70 6
a 71 86 9
a 86 71 9
a 71 72 6
a 72 71 6
a 72 87 10
a 87 72 10
a 72 73 6
a 73 72 6
a 73 88 9
a 88 73 9
a 73 74 4
a 74 73 4
a 74 89 8
a 89 74 8
a 74 75 5
a 75 74 5
a 75 90 9
a 90 75 9
a 76 91 8
a 91 76 8
a 76 77 3
a 77 76 3
a 77 92 4
a 92 77 4
a 77 78 6
a 78 77 6
a 78 93 5
a 93 78 5
a 78 79 2
a 79 78 2
a 79 94 7
a 94 79 7
a 79 80 5
a 80 79 5
a 80 95 7
a 95 80 7
a 80 81 2
a 81 80 2
a 81 96 1
a 96 81 1
a 81 82 8
a 82 81 8
a 82 97 10
a 97 82 10
a 82 83 7
a 83 82 7
a 83 98 10
a 98 83 10
a 83 84 8
a 84 83 8
a 84 99 8
a 99 84 8
a 84 85 3
a 85 84 3
a 85 100 5
a 100 85 5
a 85 86 5
a 86 85 5
a 86 101 5
a 101 86 5
a 86 87 8
a 87 86 8
a 87 102 2
a 102 87 2
a 87 88 8
a 88 87 8
a 88 103 3
a 103 88 3
a 88 89 2
a 89 88 2
a 89 104 5
a 104 89 5
a 89 90 7
a 90 89 7
a 90 105 9
a 105 90 9
a 91 106 5
a 106 91 5
a 91 92 8
a 92 91 8
a 92 107 3
a 107 92 3
a 92 93 1
a 93 92 1
a 93 108 2
a 108 93 2
a 93 94 3
a 94 93 3
a 94 109 5
a 109 94 5
a 94 95 9
a 95 94 9
a 95 110 6
a 110 95 6
a 95 96 1
a 96 95 1
a 96 111 5
a 111 96 5
a 96 97 7
a 97 96 7
a 97 112 7
a 112 97 7
a 97 98 7
a 98 97 7
a 98 113 2
a 113 98 2
a 98 99 4
a 99 98 4
a 99 114 4
a 114 99 4
a 99 100 2
a 100 99 2
a 100 115 3
a 115 100 3
a 100 101 2
a 101 100 2
a 101 116 10
a 116 101 10
a 101 102 6
a 102 101 6
a 102 117 2
a 117 102 2
a 102 103 10
a 103 102 10
a 103 118 3
a 118 103 3
a 103 104 6
a 104 103 6
a 104 119 10
a 119 104 10
a 104 105 3
a 105 104 3
a 105 120 3
a 120 105 3
a 106 121 8
a 121 106 8
a 106 107 10
a 107 106 10
a 107 122 8
a 122 107 8
a 107 108 2
a 108 107 2
a 108 123 7
a 123 108 7
a 108 109 3
a 109 108 3
a 109 124 1
a 124 109 1
a 109 110 3
a 110 109 3
a 110 125 7
a 125 110 7
a 110 111 1
a 111 110 1
a 111 126 10
a 126 111 10
a 111 112 2
a 112 111 2
a 112 127 3
a 127 112 3
a 112 113 6
a 113 112 6
a 113 128 2
a 128 113 2
a 113 114 4
a 114 113 4
a 114 129 7
a 129 114 7
a 114 115 8
a 115 114 8
a 115 116 3
a 116 115 3
a 116 117 7
a 117 116 7
a 117 132 5
a 132 117 5
a 117 118 3
a 118 117 3
a 118 133 8
a 133 118 8
a 118 119 8
a 119 118 8
a 119 134 7
a 134 119 7
a 119 120 6
a 120 119 6
a 120 135 2
a 135 120 2
a 121 136 9
a 136 121 9
a 121 122 6
a 122 121 6
a 122 137 8
a 137 122 8
a 122 123 5
a 123 122 5
a 123 138 1
a 138 123 1
a 123 124 10
a 124 123 10
a 124 139 5
a 139 124 5
a 124 125 7
a 125 124 7
a 125 126 9
a 126 125 9
a 126 141 9
a 141 126 9
a 126 127 5
a 127 126 5
a 127 142 8
a 142 127 8
a 127 128 5
a 128 127 5
a 128 143 9
a 143 128 9
a 128 129 10
a 129 128 10
a 129 144 9
a 144 129 9
a 132 147 9
a 147 132 9
a 132 133 4
a 133 132 4
a 133 148 7
a 148 133 7
a 133 134 1
a 134 133 1
a 134 149 3
a 149 134 3
a 134 135 1
a 135 134 1
a 135 150 9
a 150 135 9
a 136 151 5
a 151 136 5
a 136 137 1
a 137 136 1
a 137 152 1
a 152 137 1
a 137 138 5
a 138 137 5
a 138 153 5
a 153 138 5
a 138 139 2
a 139 138 2
a 139 154 7
a 154 139 7
a 141 156 5
a 156 141 5
a 141 142 7
a 142 141 7
a 142 157 6
a 157 142 6
a 142 143 5
a 143 142 5
a 143 158 3
a 158 143 3
a 143 144 10
a 144 143 10
a 144 159 6
a 159 144 6
a 144 145 3
a 145 144 3
a 145 160 4
a 160 145 4
a 145 146 8
a 146 145 8
a 146 161 9
a 161 146 9
a 146 147 4
a 147 146 4
a 147 162 3
a 162 147 3
a 147 148 9
a 148 147 9
a 148 163 1
a 163 148 1
a 148 149 5
a 149 148 5
a 149 164 8
a 164 149 8
a 149 150 1
a 150 149 1
a 150 165 5
a 165 150 5
a 151 166 4
a 166 151 4
a 151 152 8
a 152 151 8
a 152 167 4
a 167 152 4
a 152 153 5
a 153 152 5
a 153 168 10
a 168 153 10
a 153 154 1
a 154 153 1
a 154 169 6
a 169 154 6
a 154 155 4
a 155 154 4
a 155 170 2
a 170 155 2
a 155 156 2
a 156 155 2
a 156 171 4
a 171 156 4
a 156 157 9
a 157 156 9
a 157 172 5
a 172 157 5
a 157 158 3
a 158 157 3
a 158 173 7
a 173 158 7
a 158 159 7
a 159 158 7
a 159 174 1
a 174 159 1
a 159 160 2
a 160 159 2
a 160 175 9
a 175 160 9
a 160 161 4
a 161 160 4
a 161 176 9
a 176 161 9
a 161 162 6
a 162 161 6
a 162 177 4
a 177 162 4
a 162 163 2
a 163 162 2
a 163 178 8
a 178 163 8
a 163 164 10
a 164 163 10
a 164 179 8
a 179 164 8
a 164 165 3
a 165 164 3
a 165 180 4
a 180 165 4
a 166 181 7
a 181 166 7
a 166 167 8
a 167 166 8
a 167 182 2
a 182 167 2
a 167 168 3
a 168 167 3
a 168 183 1
a 183 168 1
a 168 169 10
a 169 168 10
a 169 184 5
a 184 169 5
a 169 170 5
a 170 169 5
a 170 185 6
a 185 170 6
a 170 171 10
a 171 170 10
a 171 186 7
a 186 171 7
a 171 172 2
a 172 171 2
a 172 187 6
a 187 172 6
a 172 173 8
a 173 172 8
a 173 188 10
a 188 173 10
a 173 174 4
a 174 173 4
a 174 189 4
a 189 174 4
a 174 175 7
a 175 174 7
a 175 190 3
a 190 175 3
a 175 176 1
a 176 175 1
a 176 191 3
a 191 176 3
a 176 177 9
a 177 176 9
a 177 192 5
a 192 177 5
a 177 178 2
a 178 177 2
a 178 193 8
a 193 178 8
a 178 179 2
a 179 178 2
a 179 194 9
a 194 179 9
a 179 180 1
a 180 179 1
a 180 195 7
a 195 180 7
a 181 196 9
a 196 181 9
a 181 182 10
a 182 181 10
a 182 183 4
a 183 182 4
a 183 198 7
a 198 183 7
a 183 184 9
a 184 183 9
a 184 199 4
a 199 184 4
a 184 185 10
a 185 184 10
a 185 200 2
a 200 185 2
a 185 186 2
a 186 185 2
a 186 201 9
a 201 186 9
a 186 187 4
a 187 186 4
a 187 202 5
a 202 187 5
a 187 188 6
a 188 187 6
a 188 203 7
a 203 188 7
a 188 189 1
a 189 188 1
a 189 204 6
a 204 189 6
a 189 190 6
a 190 189 6
a 190 205 4
a 205 190 4
a 190 191 1
a 191 190 1
a 191 206 8
a 206 191 8
a 191 192 6
a 192 191 6
a 192 207 6
a 207 192 6
a 192 193 3
a 193 192 3
a 193 194 8
a 194 193 8
a 194 209 10
a 209 194 10
a 194 195 10
a 195 194 10
a 195 210 7
a 210 195 7
a 196 211 9
a 211 196 9
a 198 213 9
a 213 198 9
a 198 199 8
a 199 198 8
a 199 214 3
a 214 199 3
a 199 200 4
a 200 199 4
a 200 215 5
a 215 200 5
a 200 201 5
a 201 200 5
a 201 216 3
a 216 201 3
a 201 202 3
a 202 201 3
a 202 217 1
a 217 202 1
a 202 203 9
a 203 202 9
a 203 218 6
a 218 203 6
a 203 204 8
a 204 203 8
a 204 219 7
a 219 204 7
a 204 205 9
a 205 204 9
a 205 220 6
a 220 205 6
a 205 206 9
a 206 205 9
a 206 207 3
a 207 206 3
a 207 222 8
a 222 207 8
a 209 224 5
a 224 209 5
a 209 210 10
a 210 209 10
a 210 225 10
a 225 210 10
a 211 212 2
a 212 211 2
a 212 213 1
a 213 212 1
a 213 214 5
a 214 213 5
a 214 215 8
a 215 214 8
a 215 216 8
a 216 215 8
a 216 217 5
a 217 216 5
a 217 218 8
a 218 217 8
a 218 219 10
a 219 218 10
a 219 220 6
a 220 219 6
a 222 223 2
a 223 222 2
a 223 224 7
a 224 223 7
a 224 225 10
a 225 224 10
